p cnf 21 39
-1 9 -2 16 -3 5 -4 12 19 0 
-1 9 -2 16 -5 3 -6 8 -4 12 20 0 
-7 -8 6 21 0 
-9 1 -8 6 20 0 
-4 12 -7 -8 6 20 0 
-10 -8 6 21 0 
-2 16 -8 6 -5 3 20 0 
-8 6 21 0 
-8 6 -4 12 -3 5 19 0 
-8 6 -2 16 20 0 
-11 -3 5 -2 16 19 0 
-12 4 -13 -8 6 21 0 
-12 4 -3 5 -8 6 20 0 
-7 -8 6 20 0 
-13 -8 6 21 0 
-14 -8 6 21 0 
-8 6 -15 -5 3 21 0 
-8 6 20 0 
-8 6 -1 9 20 0 
-4 12 -3 5 -8 6 20 0 
-8 6 -3 5 -1 9 19 0 
-15 -8 6 21 0 
-12 4 -16 2 -8 6 20 0 
-8 6 -4 12 20 0 
-2 16 -8 6 -13 -17 -1 9 20 0 
-8 6 -7 -18 -1 9 20 0 
-18 -8 6 21 0 
-10 -8 6 20 0 
-17 -8 6 21 0 
-11 -5 3 21 0 
-11 -5 3 20 0 
-12 4 -8 6 21 0 
-6 8 -5 3 20 0 
-13 -8 6 20 0 
-3 5 -6 8 -1 9 21 0 
-4 12 -10 -8 6 20 0 
-7 -4 12 -3 5 -8 6 20 0 
-4 12 -13 -8 6 20 0 
-8 6 -3 5 -2 16 19 0 
